/*********************************************
    * Lab01 - simple
    * Author: Coso
    * Creation Date: Mar, 2019
    *********************************************/
instance_name = "small_instance_01_simple";

d = 2;
r = 3;

SCj = [80 57];
Dk = [96 22 14];

Cjk = [[81 51 31]
 [82 47 54]];
